<number of tasks>
50

<cycle time>
1000

<order strength>
0.6


<task times>
1 354
2 134
3 145
4 42
5 166
6 90
7 84
8 341
9 214
10 158
11 244
12 43
13 76
14 44
15 39
16 230
17 62
18 136
19 60
20 110
21 78
22 90
23 25
24 114
25 133
26 219
27 164
28 21
29 68
30 225
31 47
32 125
33 114
34 21
35 149
36 62
37 112
38 51
39 129
40 203
41 65
42 60
43 243
44 128
45 24
46 58
47 219
48 161
49 61
50 25

<precedence relations>
1,9
2,8
3,8
4,10
4,12
5,8
6,11
6,13
7,13
7,32
8,14
8,15
8,24
8,31
9,21
9,22
9,29
10,30
11,17
11,18
12,14
12,15
12,16
12,18
12,22
13,20
13,21
13,35
14,20
14,21
15,19
15,35
15,36
15,39
16,19
16,21
16,23
17,19
17,21
17,22
17,24
18,19
18,20
18,21
18,25
19,41
20,27
20,34
21,39
21,41
22,25
23,24
23,26
24,32
24,34
24,36
24,39
25,28
25,30
26,28
26,29
26,30
27,33
28,33
28,34
28,35
29,32
29,34
29,35
30,31
30,32
30,35
30,36
31,38
31,39
34,37
34,38
36,38
36,45
38,41
39,40
39,42
40,45
41,43
41,44
41,46
42,44
43,50
44,47
44,48
44,49
44,50
45,49

<end>
